clingo version 5.6.2
Reading from ...gen_asp_scripts/ijp_expt_cases-1000.dl
Solving...
Answer: 1
res(2) witness(1,3,2) witness(2,1,3) witness(3,3,3) number_of_witnesses(3)
Optimization: 3
OPTIMUM FOUND

Models       : 1
  Optimum    : yes
Optimization : 3
Calls        : 1
Time         : 0.515s (Solving: 0.14s 1st Model: 0.06s Unsat: 0.08s)
CPU Time     : 0.514s
